switch_Floorplanner/model_cplex.lp
\ENCODING=ISO-8859-1
\Problem name: IloCplex

Minimize
 obj: y
Subject To
 c1:  x1 + 9 r1 <= 18
 c2:  y1 - y <= -11
 c3:  x2 + 3 r2 <= 16
 c4:  - y + y2 <= -7
 c5:  x3 + 7 r3 <= 18
 c6:  - y + y3 <= -9
 c7:  x4 + 4 r4 <= 17
 c8:  - y + y4 <= -7
 c9:  x5 + 2 r5 <= 19
 c10: - y + y5 <= -3
 c11: x1 + 9 r1 - x2 - 20 p12 - 20 q12 <= -2
 c12: - 9 r1 + y1 - y2 - 20 p12 + 20 q12 <= 9
 c13: x1 - x2 - 3 r2 - 20 p12 + 20 q12 >= -16
 c14: y1 + 3 r2 - y2 - 20 p12 - 20 q12 >= -33
 c15: x1 + 9 r1 - x3 - 20 p13 - 20 q13 <= -2
 c16: - 9 r1 + y1 - y3 - 20 p13 + 20 q13 <= 9
 c17: x1 - x3 - 7 r3 - 20 p13 + 20 q13 >= -18
 c18: y1 + 7 r3 - y3 - 20 p13 - 20 q13 >= -31
 c19: x1 + 9 r1 - x4 - 20 p14 - 20 q14 <= -2
 c20: - 9 r1 + y1 - y4 - 20 p14 + 20 q14 <= 9
 c21: x1 - x4 - 4 r4 - 20 p14 + 20 q14 >= -17
 c22: y1 + 4 r4 - y4 - 20 p14 - 20 q14 >= -33
 c23: x1 + 9 r1 - x5 - 20 p15 - 20 q15 <= -2
 c24: - 9 r1 + y1 - y5 - 20 p15 + 20 q15 <= 9
 c25: x1 - x5 - 2 r5 - 20 p15 + 20 q15 >= -19
 c26: y1 + 2 r5 - y5 - 20 p15 - 20 q15 >= -37
 c27: x2 + 3 r2 - x3 - 20 p23 - 20 q23 <= -4
 c28: - 3 r2 + y2 - y3 - 20 p23 + 20 q23 <= 13
 c29: x2 - x3 - 7 r3 - 20 p23 + 20 q23 >= -18
 c30: y2 + 7 r3 - y3 - 20 p23 - 20 q23 >= -31
 c31: x2 + 3 r2 - x4 - 20 p24 - 20 q24 <= -4
 c32: - 3 r2 + y2 - y4 - 20 p24 + 20 q24 <= 13
 c33: x2 - x4 - 4 r4 - 20 p24 + 20 q24 >= -17
 c34: y2 + 4 r4 - y4 - 20 p24 - 20 q24 >= -33
 c35: x2 + 3 r2 - x5 - 20 p25 - 20 q25 <= -4
 c36: - 3 r2 + y2 - y5 - 20 p25 + 20 q25 <= 13
 c37: x2 - x5 - 2 r5 - 20 p25 + 20 q25 >= -19
 c38: y2 + 2 r5 - y5 - 20 p25 - 20 q25 >= -37
 c39: x3 + 7 r3 - x4 - 20 p34 - 20 q34 <= -2
 c40: - 7 r3 + y3 - y4 - 20 p34 + 20 q34 <= 11
 c41: x3 - x4 - 4 r4 - 20 p34 + 20 q34 >= -17
 c42: y3 + 4 r4 - y4 - 20 p34 - 20 q34 >= -33
 c43: x3 + 7 r3 - x5 - 20 p35 - 20 q35 <= -2
 c44: - 7 r3 + y3 - y5 - 20 p35 + 20 q35 <= 11
 c45: x3 - x5 - 2 r5 - 20 p35 + 20 q35 >= -19
 c46: y3 + 2 r5 - y5 - 20 p35 - 20 q35 >= -37
 c47: x4 + 4 r4 - x5 - 20 p45 - 20 q45 <= -3
 c48: - 4 r4 + y4 - y5 - 20 p45 + 20 q45 <= 13
 c49: x4 - x5 - 2 r5 - 20 p45 + 20 q45 >= -19
 c50: y4 + 2 r5 - y5 - 20 p45 - 20 q45 >= -37
Bounds
      x1 >= 0
 0 <= r1 <= 1
      y1 >= 0
      x2 >= 0
 0 <= r2 <= 1
      y2 >= 0
      x3 >= 0
 0 <= r3 <= 1
      y3 >= 0
      x4 >= 0
 0 <= r4 <= 1
      y4 >= 0
      x5 >= 0
 0 <= r5 <= 1
      y5 >= 0
 0 <= p12 <= 1
 0 <= q12 <= 1
 0 <= p13 <= 1
 0 <= q13 <= 1
 0 <= p14 <= 1
 0 <= q14 <= 1
 0 <= p15 <= 1
 0 <= q15 <= 1
 0 <= p23 <= 1
 0 <= q23 <= 1
 0 <= p24 <= 1
 0 <= q24 <= 1
 0 <= p25 <= 1
 0 <= q25 <= 1
 0 <= p34 <= 1
 0 <= q34 <= 1
 0 <= p35 <= 1
 0 <= q35 <= 1
 0 <= p45 <= 1
 0 <= q45 <= 1
Binaries
 r1  r2  r3  r4  r5  p12  q12  p13  q13  p14  q14  p15  q15  p23  q23  p24 
 q24  p25  q25  p34  q34  p35  q35  p45  q45 
Generals
 x1  y1  x2  y2  x3  y3  x4  y4  x5  y5 
End
